SAT
-1 -100 -99 -98 -97 -96 83 95 -78 -69 -26 -20 -33 49 42 -52 -2 71 -73 68 -27 -64 -50 38 -57 -84 36 -77 -10 90 -4 3 15 -37 -44 7 22 -76 -80 -19 75 -30 9 39 -88 5 -94 46 48 -59 -32 -81 -29 -72 -11 -58 66 51 17 60 -34 -31 -43 -70 -86 -18 -62 -63 87 23 -82 24 89 40 -92 8 6 -25 -74 53 -16 -55 -13 54 -79 -21 91 56 28 -41 -93 -65 -35 -67 61 85 12 -14 47 45 0
